;(set-option :produce-unsat-cores true )
(set-logic ALL_SUPPORTED )
(declare-sort N$ 0 )
(declare-sort T$ 0 )
(declare-sort N_set$ 0 )
(declare-sort T_set$ 0 )
(declare-sort T_set_set$ 0 )
(declare-sort N_bool_fun$ 0 )
(declare-sort T_N_sum_set$ 0 )
(declare-sort T_set_bool_fun$ 0 )
(declare-sort N_set_N_set_fun$ 0 )
(declare-sort T_N_sum_bool_fun$ 0 )
(declare-sort T_set_set_T_set_set_fun$ 0 )
(declare-sort T_N_sum_set_T_N_sum_set_fun$ 0 )
(declare-datatypes ()((T_N_sum$ (inl$ (projl$ T$ ))(inr$ (projr$ N$ )))))
(declare-fun k$ (N$ )T_set$ )
(declare-fun l$ (N_set$ N$ )T_set_set$ )
(declare-fun n$ ()N$ )
(declare-fun n$a ()N$ )
(declare-fun ns$ ()N_set$ )
(declare-fun bot$ ()N_set$ )
(declare-fun tns$ ()T_N_sum_set$ )
(declare-fun bot$a ()T_N_sum_set$ )
(declare-fun bot$b ()T_set_set$ )
(declare-fun minus$ (N_set$ )N_set_N_set_fun$ )
(declare-fun insert$ (N$ N_set$ )N_set$ )
(declare-fun member$ (T_set$ T_set_set$ )Bool )
(declare-fun minus$a (T_N_sum_set$ )T_N_sum_set_T_N_sum_set_fun$ )
(declare-fun minus$b (T_set_set$ )T_set_set_T_set_set_fun$ )
(declare-fun collect$ (T_N_sum_bool_fun$ )T_N_sum_set$ )
(declare-fun fun_app$ (N_set_N_set_fun$ N_set$ )N_set$ )
(declare-fun insert$a (T_N_sum$ T_N_sum_set$ )T_N_sum_set$ )
(declare-fun insert$b (T_set$ T_set_set$ )T_set_set$ )
(declare-fun member$a (T_N_sum$ T_N_sum_set$ )Bool )
(declare-fun member$b (N$ N_set$ )Bool )
(declare-fun collect$a (T_set_bool_fun$ )T_set_set$ )
(declare-fun collect$b (N_bool_fun$ )N_set$ )
(declare-fun fun_app$a (T_N_sum_set_T_N_sum_set_fun$ T_N_sum_set$ )T_N_sum_set$ )
(declare-fun fun_app$b (T_set_set_T_set_set_fun$ T_set_set$ )T_set_set$ )
(declare-fun fun_app$c (T_N_sum_bool_fun$ T_N_sum$ )Bool )
(declare-fun fun_app$d (T_set_bool_fun$ T_set$ )Bool )
(declare-fun fun_app$e (N_bool_fun$ N$ )Bool )
(assert (! (not (member$ (k$ n$ )(l$ (fun_app$ (minus$ ns$ )(insert$ n$a bot$ ))n$ ))):named a0 ))
(assert (! (member$a (inr$ n$ )tns$ ):named a1 ))
(assert (! (member$b n$a ns$ ):named a2 ))
(assert (! (forall ((?v0 N$ ))(=> (member$a (inr$ ?v0 )tns$ )(member$ (k$ ?v0 )(l$ (fun_app$ (minus$ ns$ )(insert$ n$a bot$ ))?v0 )))):named a3 ))
(assert (! (forall ((?v0 T_N_sum$ )(?v1 T_N_sum_set$ ))(= (insert$a ?v0 (fun_app$a (minus$a ?v1 )(insert$a ?v0 bot$a )))(insert$a ?v0 ?v1 ))):named a4 ))
(assert (! (forall ((?v0 T_set$ )(?v1 T_set_set$ ))(= (insert$b ?v0 (fun_app$b (minus$b ?v1 )(insert$b ?v0 bot$b )))(insert$b ?v0 ?v1 ))):named a5 ))
(assert (! (forall ((?v0 N$ )(?v1 N_set$ ))(= (insert$ ?v0 (fun_app$ (minus$ ?v1 )(insert$ ?v0 bot$ )))(insert$ ?v0 ?v1 ))):named a6 ))
(assert (! (forall ((?v0 T_set$ )(?v1 T_set_set$ )(?v2 T_set_set$ ))(=> (member$ ?v0 ?v1 )(= (fun_app$b (minus$b (insert$b ?v0 ?v2 ))?v1 )(fun_app$b (minus$b ?v2 )?v1 )))):named a7 ))
(assert (! (forall ((?v0 T_N_sum$ )(?v1 T_N_sum_set$ )(?v2 T_N_sum_set$ ))(=> (member$a ?v0 ?v1 )(= (fun_app$a (minus$a (insert$a ?v0 ?v2 ))?v1 )(fun_app$a (minus$a ?v2 )?v1 )))):named a8 ))
(assert (! (forall ((?v0 N$ )(?v1 N_set$ )(?v2 N_set$ ))(=> (member$b ?v0 ?v1 )(= (fun_app$ (minus$ (insert$ ?v0 ?v2 ))?v1 )(fun_app$ (minus$ ?v2 )?v1 )))):named a9 ))
(assert (! (forall ((?v0 T_set$ )(?v1 T_set_set$ )(?v2 T_set_set$ ))(=> (not (member$ ?v0 ?v1 ))(= (fun_app$b (minus$b ?v1 )(insert$b ?v0 ?v2 ))(fun_app$b (minus$b ?v1 )?v2 )))):named a10 ))
(assert (! (forall ((?v0 T_N_sum$ )(?v1 T_N_sum_set$ )(?v2 T_N_sum_set$ ))(=> (not (member$a ?v0 ?v1 ))(= (fun_app$a (minus$a ?v1 )(insert$a ?v0 ?v2 ))(fun_app$a (minus$a ?v1 )?v2 )))):named a11 ))
(assert (! (forall ((?v0 N$ )(?v1 N_set$ )(?v2 N_set$ ))(=> (not (member$b ?v0 ?v1 ))(= (fun_app$ (minus$ ?v1 )(insert$ ?v0 ?v2 ))(fun_app$ (minus$ ?v1 )?v2 )))):named a12 ))
(assert (! (forall ((?v0 T_N_sum_set$ ))(= (fun_app$a (minus$a ?v0 )bot$a )?v0 )):named a13 ))
(assert (! (forall ((?v0 T_set_set$ ))(= (fun_app$b (minus$b ?v0 )bot$b )?v0 )):named a14 ))
(assert (! (forall ((?v0 N_set$ ))(= (fun_app$ (minus$ ?v0 )bot$ )?v0 )):named a15 ))
(assert (! (forall ((?v0 T_N_sum_set$ ))(! (= (fun_app$a (minus$a ?v0 )?v0 )bot$a ):pattern ((minus$a ?v0 )))):named a16 ))
(assert (! (forall ((?v0 T_set_set$ ))(! (= (fun_app$b (minus$b ?v0 )?v0 )bot$b ):pattern ((minus$b ?v0 )))):named a17 ))
(assert (! (forall ((?v0 N_set$ ))(! (= (fun_app$ (minus$ ?v0 )?v0 )bot$ ):pattern ((minus$ ?v0 )))):named a18 ))
(assert (! (forall ((?v0 T_N_sum_set$ ))(= (fun_app$a (minus$a bot$a )?v0 )bot$a )):named a19 ))
(assert (! (forall ((?v0 T_set_set$ ))(= (fun_app$b (minus$b bot$b )?v0 )bot$b )):named a20 ))
(assert (! (forall ((?v0 N_set$ ))(= (fun_app$ (minus$ bot$ )?v0 )bot$ )):named a21 ))
(assert (! (forall ((?v0 T_set$ ))(member$ ?v0 (insert$b ?v0 bot$b ))):named a22 ))
(assert (! (forall ((?v0 T_N_sum$ ))(member$a ?v0 (insert$a ?v0 bot$a ))):named a23 ))
(assert (! (forall ((?v0 N$ ))(member$b ?v0 (insert$ ?v0 bot$ ))):named a24 ))
(assert (! (forall ((?v0 T_N_sum_set$ )(?v1 T_N_sum$ )(?v2 T_N_sum_set$ ))(= (fun_app$a (minus$a ?v0 )(insert$a ?v1 ?v2 ))(fun_app$a (minus$a (fun_app$a (minus$a ?v0 )(insert$a ?v1 bot$a )))?v2 ))):named a25 ))
(assert (! (forall ((?v0 T_set_set$ )(?v1 T_set$ )(?v2 T_set_set$ ))(= (fun_app$b (minus$b ?v0 )(insert$b ?v1 ?v2 ))(fun_app$b (minus$b (fun_app$b (minus$b ?v0 )(insert$b ?v1 bot$b )))?v2 ))):named a26 ))
(assert (! (forall ((?v0 N_set$ )(?v1 N$ )(?v2 N_set$ ))(= (fun_app$ (minus$ ?v0 )(insert$ ?v1 ?v2 ))(fun_app$ (minus$ (fun_app$ (minus$ ?v0 )(insert$ ?v1 bot$ )))?v2 ))):named a27 ))
(assert (! (forall ((?v0 T_N_sum_set$ )(?v1 T_N_sum$ )(?v2 T_N_sum_set$ ))(= (fun_app$a (minus$a ?v0 )(insert$a ?v1 ?v2 ))(fun_app$a (minus$a (fun_app$a (minus$a ?v0 )?v2 ))(insert$a ?v1 bot$a )))):named a28 ))
(assert (! (forall ((?v0 T_set_set$ )(?v1 T_set$ )(?v2 T_set_set$ ))(= (fun_app$b (minus$b ?v0 )(insert$b ?v1 ?v2 ))(fun_app$b (minus$b (fun_app$b (minus$b ?v0 )?v2 ))(insert$b ?v1 bot$b )))):named a29 ))
(assert (! (forall ((?v0 N_set$ )(?v1 N$ )(?v2 N_set$ ))(= (fun_app$ (minus$ ?v0 )(insert$ ?v1 ?v2 ))(fun_app$ (minus$ (fun_app$ (minus$ ?v0 )?v2 ))(insert$ ?v1 bot$ )))):named a30 ))
(assert (! (forall ((?v0 T_set$ )(?v1 T_set_set$ ))(=> (member$ ?v0 ?v1 )(= (insert$b ?v0 (fun_app$b (minus$b ?v1 )(insert$b ?v0 bot$b )))?v1 ))):named a31 ))
(assert (! (forall ((?v0 T_N_sum$ )(?v1 T_N_sum_set$ ))(=> (member$a ?v0 ?v1 )(= (insert$a ?v0 (fun_app$a (minus$a ?v1 )(insert$a ?v0 bot$a )))?v1 ))):named a32 ))
(assert (! (forall ((?v0 N$ )(?v1 N_set$ ))(=> (member$b ?v0 ?v1 )(= (insert$ ?v0 (fun_app$ (minus$ ?v1 )(insert$ ?v0 bot$ )))?v1 ))):named a33 ))
(assert (! (forall ((?v0 T_set$ )(?v1 T_set_set$ ))(=> (not (member$ ?v0 ?v1 ))(= (fun_app$b (minus$b (insert$b ?v0 ?v1 ))(insert$b ?v0 bot$b ))?v1 ))):named a34 ))
(assert (! (forall ((?v0 T_N_sum$ )(?v1 T_N_sum_set$ ))(=> (not (member$a ?v0 ?v1 ))(= (fun_app$a (minus$a (insert$a ?v0 ?v1 ))(insert$a ?v0 bot$a ))?v1 ))):named a35 ))
(assert (! (forall ((?v0 N$ )(?v1 N_set$ ))(=> (not (member$b ?v0 ?v1 ))(= (fun_app$ (minus$ (insert$ ?v0 ?v1 ))(insert$ ?v0 bot$ ))?v1 ))):named a36 ))
(assert (! (forall ((?v0 T_set$ )(?v1 T_set_set$ )(?v2 T_set_set$ ))(= (member$ ?v0 (fun_app$b (minus$b ?v1 )?v2 ))(and (member$ ?v0 ?v1 )(not (member$ ?v0 ?v2 ))))):named a37 ))
(assert (! (forall ((?v0 T_N_sum$ )(?v1 T_N_sum_set$ )(?v2 T_N_sum_set$ ))(= (member$a ?v0 (fun_app$a (minus$a ?v1 )?v2 ))(and (member$a ?v0 ?v1 )(not (member$a ?v0 ?v2 ))))):named a38 ))
(assert (! (forall ((?v0 N$ )(?v1 N_set$ )(?v2 N_set$ ))(= (member$b ?v0 (fun_app$ (minus$ ?v1 )?v2 ))(and (member$b ?v0 ?v1 )(not (member$b ?v0 ?v2 ))))):named a39 ))
(assert (! (forall ((?v0 T_set$ ))(= (member$ ?v0 bot$b )false )):named a40 ))
(assert (! (forall ((?v0 T_N_sum$ ))(= (member$a ?v0 bot$a )false )):named a41 ))
(assert (! (forall ((?v0 N$ ))(= (member$b ?v0 bot$ )false )):named a42 ))
(assert (! (forall ((?v0 T_N_sum_bool_fun$ ))(= (= bot$a (collect$ ?v0 ))(forall ((?v1 T_N_sum$ ))(not (fun_app$c ?v0 ?v1 ))))):named a43 ))
(assert (! (forall ((?v0 T_set_bool_fun$ ))(= (= bot$b (collect$a ?v0 ))(forall ((?v1 T_set$ ))(not (fun_app$d ?v0 ?v1 ))))):named a44 ))
(assert (! (forall ((?v0 N_bool_fun$ ))(= (= bot$ (collect$b ?v0 ))(forall ((?v1 N$ ))(not (fun_app$e ?v0 ?v1 ))))):named a45 ))
(check-sat )
;(get-unsat-core )
